56
1 0 3
2 0 7
2 1 9
3 2 1
4 1 4
4 2 8
5 2 2
5 4 10
6 0 9
6 2 1
6 3 11
7 0 10
7 3 1
7 4 3
7 5 5
7 6 5
8 1 11
8 2 2
8 3 9
8 5 10
9 0 6
9 2 11
9 4 5
9 5 12
9 6 4
10 6 12
11 0 12
11 4 1
11 5 7
11 6 9
11 7 9
11 9 10
12 0 4
12 5 1
12 7 10
12 8 6
12 10 5
13 9 5
13 11 12
13 12 6
14 6 5
14 8 3
14 9 10
14 11 7
14 13 11
15 0 4
15 1 5
15 2 1
15 3 10
15 4 7
15 5 4
15 6 10
15 8 11
15 9 5
15 11 5
15 12 6
15 13 3
16 0 6
16 2 4
16 4 8
16 7 4
16 8 6
16 9 10
16 12 8
16 13 3
16 15 12
17 1 8
17 2 11
17 4 3
17 5 6
17 6 1
17 9 3
17 10 8
17 11 12
17 14 5
18 0 1
18 1 10
18 2 6
18 8 12
18 11 8
18 13 1
18 15 1
18 16 7
19 5 5
19 7 7
19 10 8
19 12 7
19 17 3
20 1 3
20 3 1
20 12 3
20 14 10
20 17 3
21 0 2
21 4 1
21 7 4
21 11 12
21 12 2
21 13 9
21 14 3
21 15 10
21 17 11
22 0 6
22 1 12
22 2 8
22 10 3
22 11 6
22 12 6
22 13 9
22 14 3
22 15 1
22 17 10
22 18 10
22 19 1
22 20 7
22 21 12
23 0 10
23 3 10
23 4 11
23 6 10
23 8 7
23 9 4
23 14 1
23 15 7
23 20 7
23 21 4
23 22 7
24 1 11
24 3 5
24 6 4
24 13 6
24 16 8
24 17 12
24 18 5
24 20 4
24 21 4
24 23 11
25 4 4
25 5 12
25 6 8
25 9 3
25 11 3
25 12 5
25 13 4
25 14 3
25 15 1
25 17 12
25 18 7
25 19 10
25 20 10
25 22 1
25 23 5
25 24 10
26 0 5
26 4 7
26 6 5
26 7 10
26 9 12
26 11 11
26 12 11
26 13 5
26 22 5
26 23 9
26 24 7
27 0 7
27 2 7
27 4 12
27 5 7
27 6 1
27 9 9
27 11 10
27 13 10
27 16 8
27 21 7
27 22 2
27 23 4
28 2 8
28 3 4
28 4 1
28 5 3
28 6 5
28 9 3
28 12 1
28 13 6
28 20 3
28 22 7
28 26 11
28 27 2
29 5 11
29 6 12
29 7 6
29 8 1
29 9 11
29 10 4
29 12 9
29 13 6
29 14 12
29 15 5
29 16 3
29 17 11
29 18 10
29 19 7
29 27 9
30 2 2
30 3 7
30 5 10
30 7 5
30 9 10
30 12 8
30 13 10
30 16 8
30 17 11
30 19 6
30 24 7
30 25 4
30 26 1
30 27 8
30 28 9
31 0 9
31 2 12
31 3 7
31 6 2
31 8 4
31 9 3
31 11 11
31 12 12
31 14 10
31 16 1
31 18 9
31 19 2
31 20 12
31 21 9
31 22 9
31 23 7
31 24 1
31 25 7
31 26 3
31 28 6
31 30 5
32 2 2
32 4 8
32 5 8
32 7 3
32 9 3
32 10 7
32 11 8
32 12 11
32 13 8
32 14 4
32 15 12
32 16 6
32 17 11
32 22 1
32 23 8
32 25 5
32 27 5
32 30 6
32 31 4
33 3 11
33 8 1
33 9 4
33 11 7
33 12 9
33 13 7
33 15 7
33 16 7
33 17 4
33 21 7
33 23 4
33 24 11
33 28 1
33 30 5
33 31 12
33 32 12
34 0 7
34 2 4
34 4 6
34 5 3
34 7 3
34 8 11
34 11 11
34 13 2
34 16 5
34 21 10
34 23 9
34 24 3
34 27 6
34 31 6
34 33 8
35 0 2
35 2 12
35 7 5
35 8 1
35 9 11
35 11 4
35 12 9
35 15 10
35 17 9
35 18 5
35 19 1
35 20 12
35 21 1
35 24 1
35 27 12
35 28 8
35 32 8
36 0 11
36 2 10
36 4 6
36 6 7
36 7 4
36 8 3
36 12 2
36 13 3
36 14 4
36 18 8
36 20 3
36 21 8
36 26 6
36 27 10
36 28 10
36 30 9
36 33 9
36 34 4
37 3 8
37 4 6
37 7 4
37 10 11
37 11 4
37 14 1
37 16 4
37 17 3
37 21 1
37 22 11
37 24 1
37 28 7
37 30 7
37 31 1
37 32 1
37 33 8
38 3 8
38 4 4
38 7 4
38 12 1
38 14 9
38 18 9
38 20 8
38 23 10
38 27 2
38 30 10
38 32 8
39 1 5
39 2 2
39 3 9
39 7 11
39 8 6
39 9 5
39 11 11
39 12 3
39 13 9
39 14 10
39 18 8
39 19 7
39 25 8
39 29 10
39 30 11
39 32 6
39 33 3
39 35 5
39 36 4
39 37 11
39 38 8
40 0 6
40 1 8
40 2 7
40 3 4
40 5 10
40 6 12
40 8 4
40 12 7
40 14 7
40 15 12
40 19 2
40 23 4
40 26 8
40 27 12
40 28 7
40 34 4
40 36 4
40 38 3
41 1 2
41 4 12
41 7 3
41 8 1
41 9 8
41 12 12
41 15 5
41 24 2
41 25 1
41 26 2
41 30 7
41 32 2
41 33 1
41 34 11
41 35 3
41 37 1
41 39 3
42 0 5
42 1 11
42 2 7
42 6 6
42 9 3
42 11 8
42 12 4
42 13 12
42 14 10
42 17 3
42 18 6
42 21 11
42 22 12
42 24 5
42 25 1
42 27 10
42 28 5
42 29 7
42 31 12
42 32 8
42 33 1
42 34 5
42 35 12
42 41 9
43 0 1
43 2 1
43 3 6
43 7 3
43 11 11
43 12 8
43 17 1
43 19 3
43 21 5
43 23 3
43 24 9
43 25 9
43 26 7
43 28 3
43 29 9
43 30 7
43 32 8
43 33 6
43 35 4
43 36 9
43 37 12
43 38 5
43 39 10
43 40 10
43 41 12
43 42 5
44 0 3
44 1 2
44 2 12
44 3 2
44 11 9
44 13 7
44 14 8
44 15 9
44 16 8
44 18 8
44 19 3
44 20 9
44 33 8
44 34 6
44 36 9
44 40 10
44 41 10
45 2 12
45 3 1
45 7 5
45 9 11
45 10 1
45 11 1
45 12 4
45 13 11
45 14 2
45 16 6
45 18 11
45 20 11
45 23 5
45 24 11
45 25 5
45 27 12
45 29 2
45 30 9
45 31 1
45 32 3
45 33 3
45 34 6
45 39 4
45 41 5
45 42 2
45 43 3
46 0 10
46 1 7
46 2 1
46 3 10
46 10 8
46 12 1
46 18 3
46 19 2
46 23 10
46 25 5
46 26 7
46 28 1
46 29 11
46 30 3
46 31 7
46 34 4
46 35 8
46 38 5
46 39 5
46 40 2
46 41 2
46 44 9
46 45 7
47 2 10
47 4 9
47 8 5
47 9 12
47 10 5
47 11 7
47 13 3
47 14 6
47 15 4
47 16 6
47 17 11
47 18 4
47 19 4
47 20 9
47 26 9
47 27 1
47 29 6
47 33 8
47 35 11
47 36 8
47 37 9
47 39 1
47 40 10
47 42 11
47 43 6
47 45 10
48 0 2
48 1 1
48 3 1
48 4 2
48 6 6
48 7 7
48 8 3
48 11 6
48 12 2
48 14 10
48 20 12
48 24 5
48 26 5
48 27 2
48 28 2
48 32 8
48 33 8
48 34 12
48 35 10
48 37 9
48 38 12
48 39 3
48 40 5
48 43 12
48 44 8
48 45 9
48 46 12
48 47 3
49 0 1
49 1 7
49 5 10
49 6 12
49 10 8
49 13 6
49 14 6
49 16 7
49 19 2
49 20 2
49 22 11
49 25 1
49 27 5
49 28 3
49 29 6
49 34 3
49 36 4
49 38 7
49 42 6
49 46 6
49 47 1
49 48 1
50 0 8
50 1 6
50 2 5
50 3 3
50 5 9
50 7 7
50 13 7
50 21 12
50 23 11
50 25 8
50 26 2
50 27 3
50 29 11
50 31 7
50 33 8
50 37 8
50 38 10
50 39 7
50 40 4
50 42 12
50 45 7
50 46 7
50 47 6
50 49 8
51 0 1
51 3 11
51 7 1
51 11 9
51 12 11
51 15 1
51 22 5
51 23 8
51 24 4
51 27 7
51 29 4
51 32 10
51 35 4
51 36 1
51 37 11
51 42 1
51 43 11
51 44 2
51 46 1
51 48 12
51 49 2
52 2 3
52 3 2
52 4 6
52 8 5
52 9 5
52 10 9
52 11 6
52 12 6
52 13 4
52 14 4
52 15 3
52 16 3
52 20 8
52 21 5
52 22 11
52 25 1
52 28 2
52 29 9
52 30 2
52 32 5
52 34 6
52 37 12
52 38 7
52 39 2
52 42 4
52 43 2
52 44 10
52 45 3
52 46 1
52 47 5
52 49 3
53 1 11
53 3 3
53 4 6
53 7 11
53 10 1
53 11 12
53 14 3
53 15 8
53 17 10
53 21 2
53 23 2
53 26 7
53 29 5
53 30 6
53 32 12
53 35 6
53 38 1
53 39 9
53 41 3
53 42 12
53 43 12
53 45 6
53 46 8
53 47 9
53 49 4
53 50 7
54 1 3
54 2 2
54 4 4
54 5 9
54 6 9
54 8 5
54 9 7
54 11 8
54 12 6
54 13 6
54 14 2
54 16 6
54 18 3
54 20 11
54 21 6
54 24 8
54 27 2
54 28 2
54 32 12
54 34 6
54 38 9
54 40 3
54 44 11
54 46 2
54 51 4
55 0 3
55 1 2
55 2 11
55 4 12
55 6 9
55 10 5
55 11 3
55 13 2
55 16 9
55 18 10
55 19 3
55 23 10
55 26 7
55 28 4
55 29 6
55 32 1
55 33 5
55 37 3
55 38 5
55 42 10
55 44 9
55 47 9
55 48 3
55 49 6
55 51 2
55 52 1
55 54 11
